33D32945 STP File, STP Format Version 1.0

SECTION Comments
Name "shell_n13_d3_s28"
Problem "Euclidean Steiner Tree Problem"
Remark "Generated with STPGenerator. 3 dimensions."
END

SECTION Graph
Nodes 13
END

SECTION Coordinates
DDD 0 0.0374682191 -0.9938819573 -0.1038979668
DDD 1 -0.5071221583 -0.8617630543 -0.0138403371
DDD 2 0.6453385808 -0.2930347265 0.7054564234
DDD 3 -0.3272607290 0.7972563194 -0.5072304963
DDD 4 0.4712090959 0.0513086464 -0.8805279159
DDD 5 -0.7053018721 -0.3740874655 -0.6021692764
DDD 6 -0.0086822171 0.8481558044 0.5296757032
DDD 7 -0.3826256576 0.6602868484 -0.6462343878
DDD 8 -0.5738790053 0.6825356527 -0.4525571457
DDD 9 0.3089847695 0.5173367069 0.7980545996
DDD 10 0.7296841628 0.5614692819 0.3902733247
DDD 11 -0.4857793393 0.0860356617 -0.8698369379
DDD 12 -0.5962334338 -0.7712924364 0.2227412624
END
